(set-info :source |
 Generated by Alive 0.1
 More info in N. P. Lopes, D. Menendez, S. Nagarakatte, J. Regehr.
 Provably Correct Peephole Optimizations with Alive. In PLDI'15.
|)

(set-info :status unknown)
(declare-fun %Y () (_ BitVec 4))
(declare-fun %c () (_ BitVec 1))
(assert
 (let (($x396334 (and (distinct %Y (_ bv0 4)) true)))
 (let (($x349508 (not $x396334)))
 (and (and (distinct (ite (= %c (_ bv1 1)) %Y (_ bv0 4)) (_ bv0 4)) true) $x349508))))
(check-sat)
